SPARKNaCl/why3-z3/sparknacl-sign.adb_170_54_division_check_1.smt2
;; produced by z3_gnatprove.drv ;;
(set-info :smt-lib-version 2.5)
(set-info :source |VC generated by SPARK 2014|)
(set-info :category industrial)
(set-info :status unknown)
;;; generated by SMT-LIB2 driver
;;; SMT-LIB2 driver: bit-vectors, common part
;;; SMT-LIB2: integer arithmetic
(declare-datatypes ()
  ((int__ref (int__refqtmk (int__content Int)))))

(declare-datatypes ()
  ((bool__ref (bool__refqtmk (bool__content Bool)))))

(declare-datatypes ()
  ((t__ref (t__refqtmk (t__content (_ BitVec 8))))))

(declare-sort gf16_normal_limb 0)

;; "to_rep"
(declare-fun to_rep (gf16_normal_limb) (_ BitVec 16))

;; "of_rep"
(declare-fun of_rep ((_ BitVec 16)) gf16_normal_limb)

;; "inversion_axiom"
(assert
  (forall ((x gf16_normal_limb))
    (! (= (of_rep (to_rep x)) x) :pattern ((to_rep x)) )))

;; "range_axiom"
(assert true)

;; "coerce_axiom"
(assert
  (forall ((x (_ BitVec 16)))
    (! (= (to_rep (of_rep x)) x) :pattern ((to_rep (of_rep x))) )))

(declare-sort map1 0)

;; "has_bounds"
(declare-fun has_bounds (map1
  Int
  Int) Bool)

;; "get"
(declare-fun get (map1
  Int) gf16_normal_limb)

(declare-sort map2 0)

(declare-datatypes ()
  ((map__ref (map__refqtmk (map__content map2)))))

;; "has_bounds"
(declare-fun has_bounds1 (map2
  Int
  Int) Bool)

;; "get"
(declare-fun get1 (map2
  Int) map1)

;; "dynamic_invariant"
(define-fun dynamic_invariant ((temp___expr_683 map2) (temp___is_init_679 Bool) (temp___skip_constant_680 Bool) (temp___do_toplevel_681 Bool) (temp___do_typ_inv_682 Bool)) Bool
  (and
    (has_bounds1 temp___expr_683 0 3)
    (forall ((temp___684 Int))
      (=>
        (and (<= 0 temp___684) (<= temp___684 3))
        (has_bounds (get1 temp___expr_683 temp___684) 0 15)))))

(declare-const q map2)

(declare-sort byte 0)

;; "to_rep"
(declare-fun to_rep1 (byte) (_ BitVec 8))

;; "of_rep"
(declare-fun of_rep1 ((_ BitVec 8)) byte)

;; "inversion_axiom"
(assert
  (forall ((x byte)) (! (= (of_rep1 (to_rep1 x)) x) :pattern ((to_rep1 x)) )))

;; "range_axiom"
(assert true)

;; "coerce_axiom"
(assert
  (forall ((x (_ BitVec 8)))
    (! (= (to_rep1 (of_rep1 x)) x) :pattern ((to_rep1 (of_rep1 x))) )))

(declare-sort map3 0)

;; "has_bounds"
(declare-fun has_bounds2 (map3
  Int
  Int) Bool)

;; "get"
(declare-fun get2 (map3
  Int) byte)

(declare-const s map3)

(declare-const gf_0 map1)

(declare-const gf_1 map1)

;; "sparknacl__gf_0__aggregate_def"
(declare-fun sparknacl__gf_0__aggregate_def ((_ BitVec 16)) map1)

;; "sparknacl__gf_1__aggregate_def"
(declare-fun sparknacl__gf_1__aggregate_def ((_ BitVec 16)
  (_ BitVec 16)) map1)

;; "temp_____aggregate_def_1974"
(declare-fun temp_____aggregate_def_1974 (map1
  map1
  map1
  map1) map2)

;; "gf_0__def_axiom"
(assert
  (= gf_0 (let ((temp___325 (sparknacl__gf_0__aggregate_def #x0000)))
            (let ((temp___326 temp___325)) temp___326))))

;; "def_axiom"
(assert
  (forall ((temp___321 (_ BitVec 16)))
    (let ((temp___322 (sparknacl__gf_0__aggregate_def temp___321)))
      (and
        (has_bounds temp___322 0 15)
        (forall ((temp___323 Int))
          (! (=>
               (and (<= 0 temp___323) (<= temp___323 15))
               (= (to_rep (get temp___322 temp___323)) temp___321)) :pattern (
          (get
            temp___322
            temp___323)) ))))))

;; "gf_1__def_axiom"
(assert
  (= gf_1 (let ((temp___332 (sparknacl__gf_1__aggregate_def #x0001 #x0000)))
            (let ((temp___333 temp___332)) temp___333))))

;; "def_axiom"
(assert
  (forall ((temp___327 (_ BitVec 16)) (temp___328 (_ BitVec 16)))
    (let ((temp___329 (sparknacl__gf_1__aggregate_def temp___327 temp___328)))
      (and
        (and
          (= (to_rep (get temp___329 0)) temp___327)
          (=> (and (<= 0 0) (<= 0 15)) (has_bounds temp___329 0 15)))
        (forall ((temp___330 Int))
          (! (=>
               (and (<= 0 temp___330) (<= temp___330 15))
               (=>
                 (not (= temp___330 0))
                 (= (to_rep (get temp___329 temp___330)) temp___328))) :pattern (
          (get
            temp___329
            temp___330)) ))))))

(declare-const cb (_ BitVec 8))

(declare-const swap Bool)

(declare-const lp map2)

(declare-const lq map2)

;; "lq'unused"
(define-fun lqqtunused () map__ref
  (map__refqtmk lq))

;; "lp'unused"
(define-fun lpqtunused () map__ref
  (map__refqtmk lp))

;; "swap'unused"
(define-fun swapqtunused () bool__ref
  (bool__refqtmk swap))

;; "cb'unused"
(define-fun cbqtunused () t__ref
  (t__refqtmk cb))

;; "Assume"
(assert (has_bounds gf_0 0 15))

(declare-const temp___2022 map1)

;; "H"
(assert (has_bounds temp___2022 0 15))

;; "H"
(assert
  (forall ((temp___324 Int))
    (! (=>
         (and (<= 0 temp___324) (<= temp___324 15))
         (= (to_rep (get temp___2022 temp___324)) #x0000)) :pattern (
    (get
      temp___2022
      temp___324)) )))

;; "H"
(assert (= temp___2022 (sparknacl__gf_0__aggregate_def #x0000)))

;; "sparknacl__gf_0__aggregate_def'result'unused"
(define-fun sparknacl__gf_0__aggregate_defqtresultqtunused () map1
  temp___2022)

;; "Assume"
(assert (= temp___2022 gf_0))

;; "Assume"
(assert (has_bounds gf_1 0 15))

(declare-const temp___2028 map1)

;; "H"
(assert (= (to_rep (get temp___2028 0)) #x0001))

;; "H"
(assert (has_bounds temp___2028 0 15))

;; "H"
(assert
  (forall ((temp___331 Int))
    (! (=>
         (and (<= 0 temp___331) (<= temp___331 15))
         (=>
           (not (= temp___331 0))
           (= (to_rep (get temp___2028 temp___331)) #x0000))) :pattern (
    (get
      temp___2028
      temp___331)) )))

;; "H"
(assert (= temp___2028 (sparknacl__gf_1__aggregate_def #x0001 #x0000)))

;; "sparknacl__gf_1__aggregate_def'result'unused"
(define-fun sparknacl__gf_1__aggregate_defqtresultqtunused () map1
  temp___2028)

;; "Assume"
(assert (= temp___2028 gf_1))

;; "Assume"
(assert (dynamic_invariant q true false true true))

;; "Assume"
(assert (has_bounds2 s 0 31))

;; "Assume"
(assert true)

;; "Assume"
(assert true)

;; "Assume"
(assert true)

;; "Assume"
(assert (dynamic_invariant lp false false true true))

;; "Assume"
(assert true)

;; "Assume"
(assert (dynamic_invariant lq false false true true))

;; "o"
(define-fun o () map1
  gf_0)

;; "o"
(define-fun o1 () map1
  gf_1)

;; "o"
(define-fun o2 () map1
  gf_1)

;; "o"
(define-fun o3 () map1
  gf_0)

(declare-const temp___1982 map2)

;; "H"
(assert (= (get1 temp___1982 0) o3))

;; "H"
(assert (= (get1 temp___1982 1) o2))

;; "H"
(assert (= (get1 temp___1982 2) o1))

;; "H"
(assert (= (get1 temp___1982 3) o))

;; "H"
(assert (has_bounds1 temp___1982 0 3))

;; "H"
(assert (= temp___1982 (temp_____aggregate_def_1974 o3 o2 o1 o)))

;; "temp_____aggregate_def_1974'result'unused"
(define-fun temp_____aggregate_def_1974qtresultqtunused () map2
  temp___1982)

(declare-const lp1 map2)

;; "lp'unused"
(define-fun lpqtunused1 () map__ref
  (map__refqtmk lp1))

;; "H"
(assert (= lp1 temp___1982))

(declare-const lq1 map2)

;; "lq'unused"
(define-fun lqqtunused1 () map__ref
  (map__refqtmk lq1))

;; "H"
(assert (= lq1 q))

(declare-const i Int)

;; "i'unused"
(define-fun iqtunused () int__ref
  (int__refqtmk i))

;; "H"
(assert (= i 31))

;; "int__content'result'unused"
(define-fun int__contentqtresultqtunused () Int
  i)

;; "o"
(define-fun o4 () Bool
  (ite (<= i 31) true false))

;; "infix <='result'unused"
(define-fun infix_lseqqtresultqtunused () Bool
  o4)

;; "int__content'result'unused"
(define-fun int__contentqtresultqtunused1 () Int
  i)

;; "o"
(define-fun o5 () Bool
  (ite (<= 0 i) true false))

;; "infix <='result'unused"
(define-fun infix_lseqqtresultqtunused1 () Bool
  o5)

;; "o"
(define-fun o6 () Bool
  (and o5 o4))

;; "andb'result'unused"
(define-fun andbqtresultqtunused () Bool
  o6)

;; "H"
(assert (= o6 true))

;; "temp___loop_entry_2011'unused"
(define-fun temp___loop_entry_2011qtunused () map2
  lq1)

;; "map__content'result'unused"
(define-fun map__contentqtresultqtunused () map2
  lq1)

;; "temp___loop_entry_2008'unused"
(define-fun temp___loop_entry_2008qtunused () map2
  lp1)

;; "map__content'result'unused"
(define-fun map__contentqtresultqtunused1 () map2
  lp1)

;; "temp___loop_entry_2005'unused"
(define-fun temp___loop_entry_2005qtunused () Bool
  swap)

;; "bool__content'result'unused"
(define-fun bool__contentqtresultqtunused () Bool
  swap)

;; "temp___loop_entry_2004'unused"
(define-fun temp___loop_entry_2004qtunused () (_ BitVec 8)
  cb)

;; "t__content'result'unused"
(define-fun t__contentqtresultqtunused () (_ BitVec 8)
  cb)

(declare-const cb1 (_ BitVec 8))

(declare-const swap1 Bool)

(declare-const lp2 map2)

(declare-const lq2 map2)

(declare-const i1 Int)

;; "i'unused"
(define-fun iqtunused1 () int__ref
  (int__refqtmk i1))

;; "lq'unused"
(define-fun lqqtunused2 () map__ref
  (map__refqtmk lq2))

;; "lp'unused"
(define-fun lpqtunused2 () map__ref
  (map__refqtmk lp2))

;; "swap'unused"
(define-fun swapqtunused1 () bool__ref
  (bool__refqtmk swap1))

;; "Assume"
(assert
  (= (and (ite (and
                 (dynamic_invariant lp2 false true true true)
                 (dynamic_invariant lq2 false true true true))
            true
            false) (ite (and (<= 0 i1) (<= i1 31)) true false)) true))

;; "int__content'result'unused"
(define-fun int__contentqtresultqtunused2 () Int
  i1)

;; "o"
(define-fun o7 () byte
  (get2 s i1))

;; "get'result'unused"
(define-fun getqtresultqtunused () byte
  o7)

(declare-const o8 (_ BitVec 8))

;; "Ensures"
(assert (= (to_rep1 o7) o8))

;; "to_rep'result'unused"
(define-fun to_repqtresultqtunused () (_ BitVec 8)
  o8)

(declare-const cb2 (_ BitVec 8))

;; "cb'unused"
(define-fun cbqtunused1 () t__ref
  (t__refqtmk cb2))

;; "H"
(assert (= cb2 o8))

(declare-const j Int)

;; "j'unused"
(define-fun jqtunused () int__ref
  (int__refqtmk j))

;; "H"
(assert (= j 7))

;; "int__content'result'unused"
(define-fun int__contentqtresultqtunused3 () Int
  j)

;; "o"
(define-fun o9 () Bool
  (ite (<= j 7) true false))

;; "infix <='result'unused"
(define-fun infix_lseqqtresultqtunused2 () Bool
  o9)

;; "int__content'result'unused"
(define-fun int__contentqtresultqtunused4 () Int
  j)

;; "o"
(define-fun o10 () Bool
  (ite (<= 0 j) true false))

;; "infix <='result'unused"
(define-fun infix_lseqqtresultqtunused3 () Bool
  o10)

;; "o"
(define-fun o11 () Bool
  (and o10 o9))

;; "andb'result'unused"
(define-fun andbqtresultqtunused1 () Bool
  o11)

;; "H"
(assert (= o11 true))

;; "temp___loop_entry_2003'unused"
(define-fun temp___loop_entry_2003qtunused () map2
  lq2)

;; "map__content'result'unused"
(define-fun map__contentqtresultqtunused2 () map2
  lq2)

;; "temp___loop_entry_2000'unused"
(define-fun temp___loop_entry_2000qtunused () map2
  lp2)

;; "map__content'result'unused"
(define-fun map__contentqtresultqtunused3 () map2
  lp2)

;; "temp___loop_entry_1997'unused"
(define-fun temp___loop_entry_1997qtunused () Bool
  swap1)

;; "bool__content'result'unused"
(define-fun bool__contentqtresultqtunused1 () Bool
  swap1)

(declare-const lp3 map2)

(declare-const lq3 map2)

(declare-const j1 Int)

;; "j'unused"
(define-fun jqtunused1 () int__ref
  (int__refqtmk j1))

;; "lq'unused"
(define-fun lqqtunused3 () map__ref
  (map__refqtmk lq3))

;; "lp'unused"
(define-fun lpqtunused3 () map__ref
  (map__refqtmk lp3))

;; "Assume"
(assert
  (= (and (ite (and
                 (dynamic_invariant lp3 false true true true)
                 (dynamic_invariant lq3 false true true true))
            true
            false) (ite (and (<= 0 j1) (<= j1 7)) true false)) true))

(declare-const o12 (_ BitVec 8))

(declare-const int__contentqtresultqtunused5 Int)

;; "H"
(assert (= int__contentqtresultqtunused5 j1))

(declare-const infix_lsqtresultqtunused Bool)

;; "H"
(assert (= infix_lsqtresultqtunused (ite (< j1 8) true false)))

(declare-const int__contentqtresultqtunused6 Int)

(declare-const o13 (_ BitVec 8))

(declare-const of_intqtresultqtunused (_ BitVec 8))

(declare-const t__contentqtresultqtunused1 (_ BitVec 8))

(declare-const lsr_bvqtresultqtunused (_ BitVec 8))

;; "H"
(assert
  (ite (< j1 8)
    (and
      (= int__contentqtresultqtunused6 j1)
      (and
        (= o13 ((_ int2bv 8) j1))
        (and
          (= of_intqtresultqtunused o13)
          (and
            (= t__contentqtresultqtunused1 cb2)
            (and (= o12 (bvlshr cb2 o13)) (= lsr_bvqtresultqtunused o12))))))
    (= o12 #x00)))

;; Goal "def'vc"
;; File "sparknacl-sign.adb", line 67, characters 0-0
(assert
  (not (not (= #x02 #x00))))

(check-sat)
